data;

set Accessi := 1 2 3 4 5 6;
set Fasi := 1 2 3;

param q :=
 1 .15 2 .10 3 .07
 4 .10 5 .08 6 .05;

param s :=
 1 0.5 2 0.4 3 0.3
 4 0.5 5 0.4 6 0.3;

param p :=
 1 .9 2 .9 3 .9
 4 .9 5 .9 6 .9;

param Gmin :=
 1 30 2 30 3 30;

param L :=
 1 5 2 5 3 5;

param C0 := 120;

param A :
     1 2 3 4 5 6
:= 1 1 1 0 1 0 0
   2 0 0 1 1 0 1
   3 0 1 0 0 1 1;

end;
